29940
0 1 0 0 1 1 0 1 1 0 0 0 0 0 0 0 1 0 1 0 1 0 0 1 0 1 0 0 0 1 
7 4 16 18 5 25 16 18 18 18 29 20 8 1 20 18 1 20 18 18 18 16 5 16 23 18 18 8 29 5 4 4 4 16 18 4 20 8 16 16 18 8 4 29 8 4 8 16 4 20 18 16 5 16 8 4 7 8 18 25 29 23 7 8 8 25 23 20 4 25 7 25 4 8 23 23 20 23 8 16 23 23 8 7 29 23 4 5 18 7 7 4 25 25 5 1 18 4 23 25 20 16 25 7 4 5 29 16 18 1 20 29 18 25 25 8 7 7 20 8 8 25 23 4 8 16 5 25 4 23 18 16 25 20 1 8 1 1 25 20 25 18 25 25 25 5 16 16 18 25 5 20 23 23 8 7 5 16 8 1 1 18 23 5 5 7 1 29 1 16 1 20 20 20 29 5 23 20 29 20 5 16 5 4 25 8 7 23 23 16 5 16 4 4 7 29 7 5 20 4 
